c SAT Generator for power-law distributed variable frequencies
c -g u -v 20 -c 91 -k 3 -p 2.750000 -b 3.200000 -f /home/schmidt/Devel/ni-kop-sat/data/ensemble/ruf20-91/ruf20-91-927 -u 1 -U 1 -s 1952829832
p cnf 20 91
-4 11 14 0
3 -4 -14 0
-3 -5 15 0
-1 -15 16 0
6 -8 15 0
8 -14 -18 0
-4 -11 -13 0
5 12 -17 0
1 4 -18 0
5 7 -14 0
-9 -16 20 0
4 11 -16 0
-6 12 -13 0
-14 -16 -19 0
-9 -14 -16 0
2 13 20 0
1 -4 16 0
-4 14 -16 0
3 4 -10 0
-9 -19 20 0
-10 -15 18 0
3 5 9 0
1 -12 -16 0
2 5 10 0
-8 -9 19 0
-4 7 -14 0
-5 -10 -17 0
2 10 -18 0
11 -14 16 0
10 12 18 0
-5 6 -20 0
4 8 16 0
-3 -7 -10 0
-2 -13 -20 0
7 -11 -13 0
2 19 -20 0
4 10 -14 0
1 -6 -17 0
1 -3 -18 0
1 16 18 0
-1 15 19 0
1 8 10 0
-2 11 20 0
-5 -10 -19 0
10 -13 18 0
-5 -7 -9 0
-8 10 -15 0
-3 9 16 0
8 12 -17 0
10 18 20 0
5 -7 -19 0
4 17 18 0
-1 -18 -20 0
8 -10 16 0
-10 16 20 0
9 10 -11 0
-6 -14 16 0
3 -9 -20 0
3 7 14 0
-1 -4 10 0
-11 18 -19 0
1 9 10 0
5 14 -20 0
-5 -9 -15 0
-12 -13 -17 0
1 -2 -12 0
1 4 -19 0
-6 -7 9 0
9 -11 -20 0
-4 12 -19 0
-6 12 -19 0
-8 9 -20 0
3 -7 -10 0
-6 8 -13 0
6 -13 -17 0
-4 7 14 0
2 7 -8 0
2 -14 20 0
16 18 19 0
3 4 -17 0
-8 -15 20 0
-8 14 17 0
5 -10 -15 0
-9 10 18 0
-6 17 19 0
3 -11 -15 0
-7 -14 -17 0
-10 -13 -19 0
-13 19 -20 0
2 6 20 0
5 11 13 0
